% demand
num_movements = 28;
loading_factor = [1850, 1500, 1700, 1050, 1750, 1450, 1150, 1300, 950, 1600, 2000, 950, 1450, 1550, 900, 1100, 1300, 900, 1400, 1300, 1500, 1100, 1250, 1450, 800, 1500, 1800, 950];
pickup_time = [0, 0, 0, 0, 1, 1, 1, 1, 1, 4, 4, 5, 6, 7, 7, 7, 7, 8, 8, 8, 9, 9, 9, 9, 9, 11, 11, 11];
delivery_time = [1, 1, 1, 1, 5, 3, 3, 8, 3, 6, 5, 7, 7, 8, 8, 8, 8, 11, 9, 9, 12, 10, 12, 10, 10, 12, 12, 12];

% transporter definition
total_capacity = 7000;
num_decks = 3;
capacity = [3000, 1000, 3000];

% ways out of decks
num_ways_out = 1;
paths_out = array3d(decks, ways_out, decks, [
% ways out of deck d1
2, 3, 0, 

% ways out of deck d2
3, 0, 0, 

% ways out of deck d3
0, 0, 0,	

]);

